%-----------------------------------------------------------------------------%
% Dual Arm Multi Capacity Multi Tool Scheduling / Routing
% Assembly Configuration
% Auto Generated by python script, authored by Johan Ludde Wessen 
%-----------------------------------------------------------------------------%


task_durations = [|28, 32, 28, 28, 25, 26, 25, 51, 53, 54, 43, 54, 50, 43, 26, 33, 25,  5,  6,  8,  7,  8,  5
                  |30, 30, 30, 34, 23, 30, 25, 57, 59, 50, 47, 52, 48, 51, 25, 29, 29,  6,  5,  7,  8,  7,  6
                  |];


TRAY_TASKS = 1..5;
CAMERA_TASKS = 15..17;
OUTPUT_TASKS = { 14 };


empty_gripper_tasks = 18..23;


gripper_pick_tasks_orders = [|1, 8, -1
|2, 9, -1
|6, 13, -1
|7, 14, -1
|];

suction_pick_tasks_orders = [|3, 15, 10, -1
|4, 16, 11, -1
|5, 17, 12, -1
|];

fixture_task_orders = [|8, 18, 10, 20, 11, 21, 6, -1
|12, 22, 9, 19, 13, 23, 7, -1
|];

